10
0 1 2 7 5 8 9 10 4 6
2 0 3 6 4 12 5 3 6 9
10 11 0 1 6 9 7 8 1 11
3 9 12 0 20 11 12 7 5 1
5 19 17 13 0 5 11 13 19 11
17 5 17 8 12 0 7 3 18 5
3 11 17 7 18 5 0 6 15 2
1 7 11 14 12 11 10 0 8 11
4 8 9 12 12 14 20 19 0 15
7 3 4 19 4 15 6 10 15 0